decision_x1=[0,7];
decision_x2=[0,7];
decision_x3=[0,7];
decision_x4=[0,7];
decision_x5=[0,7];
decision_x6=[0,7];
decision_x7=[0,7];
decision_x8=[0,7];
decision_x9=[0,7];
decision_x10=[0,7];
decision_x11=[0,7];
decision_x12=[0,7];
decision_x13=[0,7];
decision_x14=[0,7];
decision_x15=[0,7];
decision_x16=[0,7];
decision_x17=[0,7];
decision_x18=[0,7];
decision_x19=[0,7];
decision_x20=[0,7];
random_y1=[0,7];
random_y2=[0,7];
random_y3=[0,7];
random_y4=[0,7];
random_y5=[0,7];
random_y6=[0,7];
random_y7=[0,7];
random_y8=[0,7];
random_y9=[0,7];
constraint_x2_x1=[
0,0,1.8|
0,1,9.6|
0,2,1.1|
0,3,1.7|
0,4,4.3|
0,5,6|
0,6,0.77|
0,7,9.4|
1,0,6.5|
1,1,0.49|
1,2,4.4|
1,3,8.6|
1,4,8.8|
1,5,6.3|
1,6,2.9|
1,7,1.1|
2,0,8.6|
2,1,8|
2,2,6|
2,3,2.2|
2,4,5.2|
2,5,2.5|
2,6,6.1|
2,7,2.5|
3,0,9|
3,1,1.9|
3,2,5.9|
3,3,3.5|
3,4,2.1|
3,5,8|
3,6,0.12|
3,7,9.8|
4,0,5.3|
4,1,1.3|
4,2,5.4|
4,3,6.4|
4,4,2.3|
4,5,0.52|
4,6,4.9|
4,7,7.7|
5,0,1.7|
5,1,2.7|
5,2,8|
5,3,3.1|
5,4,5.6|
5,5,4|
5,6,0.093|
5,7,6.9|
6,0,5.5|
6,1,8.1|
6,2,2.5|
6,3,2.5|
6,4,2.1|
6,5,1.2|
6,6,8.4|
6,7,9.3|
7,0,2.6|
7,1,8.3|
7,2,6.2|
7,3,2.1|
7,4,2.2|
7,5,9|
7,6,2.8|
7,7,9.2|
];
constraint_x3_x2=[
0,0,6.7|
0,1,4.5|
0,2,8|
0,3,6.2|
0,4,8.3|
0,5,6.4|
0,6,6.9|
0,7,7.4|
1,0,1.7|
1,1,7.6|
1,2,5|
1,3,8|
1,4,4.5|
1,5,6.2|
1,6,2.8|
1,7,5.7|
2,0,8.4|
2,1,3.5|
2,2,6.5|
2,3,8.2|
2,4,6.6|
2,5,2.9|
2,6,3|
2,7,9.1|
3,0,2|
3,1,3.2|
3,2,4.8|
3,3,4.9|
3,4,2.1|
3,5,7.4|
3,6,3.2|
3,7,0.75|
4,0,8.8|
4,1,3.1|
4,2,8.3|
4,3,3.1|
4,4,7.2|
4,5,9.7|
4,6,8.4|
4,7,8.1|
5,0,8.9|
5,1,8.7|
5,2,8.7|
5,3,6.8|
5,4,8.2|
5,5,8|
5,6,7.1|
5,7,2.6|
6,0,5.3|
6,1,3.2|
6,2,4.7|
6,3,2|
6,4,4.8|
6,5,5.6|
6,6,9|
6,7,1.4|
7,0,6.3|
7,1,7.6|
7,2,9.5|
7,3,7.3|
7,4,1.1|
7,5,3.2|
7,6,5.8|
7,7,4|
];
constraint_x4_x3=[
0,0,1.6|
0,1,1.8|
0,2,6.4|
0,3,4.1|
0,4,1.2|
0,5,2.2|
0,6,1.3|
0,7,1.9|
1,0,2|
1,1,4.5|
1,2,4.4|
1,3,1|
1,4,4.2|
1,5,7.6|
1,6,4.1|
1,7,4.9|
2,0,3.7|
2,1,0.55|
2,2,5.8|
2,3,0.26|
2,4,6.6|
2,5,4.3|
2,6,1.4|
2,7,2|
3,0,1.5|
3,1,4.9|
3,2,7|
3,3,2.6|
3,4,5.6|
3,5,0.95|
3,6,8.5|
3,7,5.8|
4,0,0.58|
4,1,4.3|
4,2,1.3|
4,3,3.5|
4,4,8.4|
4,5,4.7|
4,6,9.2|
4,7,3.9|
5,0,9.4|
5,1,1.2|
5,2,6.5|
5,3,9|
5,4,1.7|
5,5,8.3|
5,6,1.6|
5,7,2.2|
6,0,1.3|
6,1,0.62|
6,2,8.3|
6,3,1.9|
6,4,0.52|
6,5,0.33|
6,6,9.8|
6,7,7.8|
7,0,9.1|
7,1,7.7|
7,2,5.1|
7,3,2.9|
7,4,1.3|
7,5,8.6|
7,6,9.1|
7,7,8.7|
];
constraint_x5_x1=[
0,0,3.1|
0,1,0.47|
0,2,3.1|
0,3,5.5|
0,4,0.021|
0,5,6.5|
0,6,2.2|
0,7,0.63|
1,0,3.8|
1,1,8.8|
1,2,1.9|
1,3,3|
1,4,8.9|
1,5,4.9|
1,6,5.8|
1,7,2.1|
2,0,0.83|
2,1,7.2|
2,2,0.6|
2,3,4.6|
2,4,2.2|
2,5,0.63|
2,6,3.1|
2,7,0.8|
3,0,1.3|
3,1,6|
3,2,6.2|
3,3,3.9|
3,4,7.5|
3,5,7.4|
3,6,4.5|
3,7,7.1|
4,0,9.6|
4,1,9.8|
4,2,4.9|
4,3,6.4|
4,4,1.9|
4,5,0.099|
4,6,9.4|
4,7,9.3|
5,0,0.99|
5,1,1.1|
5,2,2.8|
5,3,6.7|
5,4,6.1|
5,5,3.8|
5,6,8.3|
5,7,4.8|
6,0,6.5|
6,1,1.9|
6,2,3.2|
6,3,4.5|
6,4,0.47|
6,5,1.1|
6,6,2.9|
6,7,5.5|
7,0,7.8|
7,1,2.6|
7,2,8.6|
7,3,4.9|
7,4,7.3|
7,5,3.1|
7,6,0.23|
7,7,0.053|
];
constraint_x6_x2=[
0,0,6.9|
0,1,9|
0,2,0.69|
0,3,0.58|
0,4,4.5|
0,5,6.8|
0,6,1.8|
0,7,8.5|
1,0,9.6|
1,1,3|
1,2,8.3|
1,3,8.7|
1,4,9.2|
1,5,0.28|
1,6,5.2|
1,7,0.17|
2,0,0.34|
2,1,8.5|
2,2,1.6|
2,3,7.9|
2,4,2.7|
2,5,0.36|
2,6,8|
2,7,0.67|
3,0,7.9|
3,1,7.8|
3,2,6.1|
3,3,8.9|
3,4,9.3|
3,5,8.7|
3,6,7.8|
3,7,5.4|
4,0,0.43|
4,1,3.6|
4,2,2.9|
4,3,8.6|
4,4,8.2|
4,5,2.7|
4,6,7.7|
4,7,4.5|
5,0,6.9|
5,1,6.5|
5,2,4.7|
5,3,5.3|
5,4,9.5|
5,5,9.8|
5,6,6.4|
5,7,3.6|
6,0,2.6|
6,1,9.4|
6,2,4|
6,3,0.98|
6,4,8.4|
6,5,6|
6,6,5.3|
6,7,0.022|
7,0,2.3|
7,1,0.82|
7,2,6.5|
7,3,2.6|
7,4,8.1|
7,5,6.8|
7,6,8.2|
7,7,7.9|
];
constraint_x7_x3=[
0,0,5.5|
0,1,1.6|
0,2,5.2|
0,3,3.8|
0,4,8.9|
0,5,3.3|
0,6,2.9|
0,7,0.4|
1,0,6.2|
1,1,2.6|
1,2,4.3|
1,3,8.8|
1,4,6.1|
1,5,1.3|
1,6,1.6|
1,7,6.3|
2,0,5.4|
2,1,8.8|
2,2,8.7|
2,3,7.2|
2,4,1.4|
2,5,2.7|
2,6,9.5|
2,7,2|
3,0,1.3|
3,1,5.8|
3,2,9.2|
3,3,4.6|
3,4,2.3|
3,5,7.8|
3,6,3.9|
3,7,5.6|
4,0,3.9|
4,1,6.9|
4,2,0.1|
4,3,2.2|
4,4,7.5|
4,5,0.84|
4,6,0.51|
4,7,8.9|
5,0,1.5|
5,1,6.3|
5,2,7.4|
5,3,2|
5,4,6.9|
5,5,0.055|
5,6,5.3|
5,7,9.2|
6,0,3.6|
6,1,5.7|
6,2,2.8|
6,3,2.3|
6,4,7.7|
6,5,5.3|
6,6,1.9|
6,7,1.2|
7,0,6.1|
7,1,6.4|
7,2,8.5|
7,3,2.2|
7,4,6|
7,5,6.1|
7,6,8|
7,7,1.2|
];
constraint_x8_x4=[
0,0,3.7|
0,1,5.3|
0,2,2.7|
0,3,1.4|
0,4,7|
0,5,4.7|
0,6,3.9|
0,7,2.3|
1,0,1.9|
1,1,8.2|
1,2,1.9|
1,3,5.3|
1,4,8.7|
1,5,3.4|
1,6,6.9|
1,7,1.9|
2,0,5.8|
2,1,3.7|
2,2,5.1|
2,3,7|
2,4,8.1|
2,5,4.4|
2,6,3.5|
2,7,6.1|
3,0,3|
3,1,8.9|
3,2,0.61|
3,3,8.5|
3,4,2.3|
3,5,9.9|
3,6,6.6|
3,7,8.3|
4,0,9.9|
4,1,2.5|
4,2,6.9|
4,3,2|
4,4,8.7|
4,5,9.4|
4,6,8.4|
4,7,0.26|
5,0,2.9|
5,1,7.3|
5,2,3.5|
5,3,9.6|
5,4,5.2|
5,5,9|
5,6,8.5|
5,7,1.3|
6,0,2|
6,1,9.8|
6,2,8.7|
6,3,5.7|
6,4,1.3|
6,5,9.9|
6,6,3.4|
6,7,3.9|
7,0,5.1|
7,1,6.6|
7,2,8.5|
7,3,9.1|
7,4,9.3|
7,5,8.3|
7,6,7.2|
7,7,6.3|
];
constraint_x9_x5=[
0,0,2.7|
0,1,0.28|
0,2,7.7|
0,3,2.4|
0,4,0.76|
0,5,5.7|
0,6,2.9|
0,7,3.9|
1,0,9.6|
1,1,6.8|
1,2,1.7|
1,3,2.5|
1,4,2.8|
1,5,2.7|
1,6,9.3|
1,7,9.6|
2,0,7.7|
2,1,6.8|
2,2,1.4|
2,3,9.5|
2,4,8.7|
2,5,2.1|
2,6,5.6|
2,7,0.39|
3,0,9|
3,1,3|
3,2,3.8|
3,3,3.9|
3,4,2.2|
3,5,6.5|
3,6,1.9|
3,7,2.8|
4,0,6.3|
4,1,5.9|
4,2,2.3|
4,3,0.95|
4,4,3.8|
4,5,8.9|
4,6,1.7|
4,7,0.69|
5,0,2.3|
5,1,1.1|
5,2,1.9|
5,3,5.8|
5,4,7.2|
5,5,7.7|
5,6,5.7|
5,7,5|
6,0,5|
6,1,4.7|
6,2,2.3|
6,3,8.7|
6,4,5|
6,5,9.7|
6,6,9|
6,7,9.2|
7,0,5.1|
7,1,8.5|
7,2,9.4|
7,3,0.06|
7,4,5.1|
7,5,1.4|
7,6,9.7|
7,7,2.6|
];
constraint_x10_x6=[
0,0,6.1|
0,1,3.7|
0,2,4|
0,3,4.1|
0,4,4.1|
0,5,5.3|
0,6,0.74|
0,7,6.6|
1,0,1.4|
1,1,5.9|
1,2,0.97|
1,3,4|
1,4,7.6|
1,5,3.4|
1,6,7|
1,7,7.4|
2,0,4.3|
2,1,4.8|
2,2,9.9|
2,3,7.9|
2,4,1.8|
2,5,1.2|
2,6,7.9|
2,7,4|
3,0,7|
3,1,0.81|
3,2,7.2|
3,3,3.6|
3,4,6.4|
3,5,3.7|
3,6,4.2|
3,7,3.7|
4,0,4.2|
4,1,4.2|
4,2,6.1|
4,3,0.15|
4,4,8.3|
4,5,8.2|
4,6,3.2|
4,7,3.4|
5,0,5.2|
5,1,9.7|
5,2,7.3|
5,3,6.9|
5,4,1.4|
5,5,8.5|
5,6,1.6|
5,7,0.65|
6,0,3.4|
6,1,3.5|
6,2,5|
6,3,2.7|
6,4,5.4|
6,5,9.3|
6,6,0.82|
6,7,4.4|
7,0,9.6|
7,1,1.1|
7,2,1.3|
7,3,0.12|
7,4,0.075|
7,5,9.2|
7,6,2.5|
7,7,3.3|
];
constraint_x11_x7=[
0,0,8.7|
0,1,3.9|
0,2,1.1|
0,3,6.8|
0,4,8.9|
0,5,4.9|
0,6,9.2|
0,7,7.8|
1,0,4|
1,1,3|
1,2,0.61|
1,3,6|
1,4,5.7|
1,5,6.6|
1,6,8.4|
1,7,9|
2,0,6.9|
2,1,2.5|
2,2,2.2|
2,3,5.2|
2,4,9.9|
2,5,6|
2,6,3|
2,7,9.7|
3,0,5.6|
3,1,5.9|
3,2,6.8|
3,3,7.8|
3,4,2|
3,5,4|
3,6,1.4|
3,7,7.1|
4,0,1.7|
4,1,0.057|
4,2,9.4|
4,3,0.3|
4,4,7.5|
4,5,1.1|
4,6,0.9|
4,7,1.2|
5,0,10|
5,1,2|
5,2,9.2|
5,3,2|
5,4,5.7|
5,5,0.38|
5,6,6|
5,7,8.5|
6,0,2.4|
6,1,6.3|
6,2,4.8|
6,3,4.2|
6,4,9|
6,5,3.5|
6,6,7.7|
6,7,2.5|
7,0,4.9|
7,1,0.66|
7,2,4.7|
7,3,9|
7,4,2.3|
7,5,3.7|
7,6,0.0025|
7,7,7.1|
];
constraint_x12_x8=[
0,0,9|
0,1,7.8|
0,2,9|
0,3,0.31|
0,4,8.9|
0,5,5.8|
0,6,1.6|
0,7,6.6|
1,0,1.7|
1,1,0.9|
1,2,2.1|
1,3,3.1|
1,4,1.9|
1,5,3.3|
1,6,1|
1,7,1.3|
2,0,2.6|
2,1,0.52|
2,2,0.027|
2,3,9.7|
2,4,4.6|
2,5,0.48|
2,6,4|
2,7,8.8|
3,0,9.7|
3,1,2.7|
3,2,5.6|
3,3,5.9|
3,4,6.5|
3,5,3.2|
3,6,8.8|
3,7,4.3|
4,0,4.3|
4,1,1.8|
4,2,9.2|
4,3,1.7|
4,4,2.2|
4,5,3.9|
4,6,6.4|
4,7,3.2|
5,0,4.7|
5,1,6.9|
5,2,3.5|
5,3,5.8|
5,4,4.3|
5,5,6.4|
5,6,2.4|
5,7,2.2|
6,0,5.4|
6,1,9.3|
6,2,4.6|
6,3,2.2|
6,4,7.6|
6,5,3.2|
6,6,9.8|
6,7,3.6|
7,0,6.7|
7,1,3.6|
7,2,7|
7,3,5.1|
7,4,0.19|
7,5,3.7|
7,6,2.8|
7,7,0.32|
];
constraint_x13_x9=[
0,0,9|
0,1,1.9|
0,2,0.074|
0,3,5.8|
0,4,7.1|
0,5,4.2|
0,6,0.37|
0,7,0.97|
1,0,0.89|
1,1,8.8|
1,2,3.7|
1,3,2.8|
1,4,4.4|
1,5,2.7|
1,6,1.9|
1,7,4.6|
2,0,5.1|
2,1,0.27|
2,2,4.1|
2,3,8.1|
2,4,8|
2,5,3.3|
2,6,0.07|
2,7,8.9|
3,0,2.9|
3,1,4.3|
3,2,2.9|
3,3,4.2|
3,4,2.5|
3,5,5.5|
3,6,5.8|
3,7,4.2|
4,0,8.1|
4,1,2.5|
4,2,2.5|
4,3,2.5|
4,4,2.3|
4,5,7.5|
4,6,6.8|
4,7,6.1|
5,0,4.2|
5,1,9.3|
5,2,1.4|
5,3,7|
5,4,9.7|
5,5,3.6|
5,6,8.1|
5,7,1.5|
6,0,7.4|
6,1,0.25|
6,2,3.1|
6,3,8.9|
6,4,8.5|
6,5,9|
6,6,2|
6,7,3.1|
7,0,7.1|
7,1,5.5|
7,2,7.8|
7,3,9.3|
7,4,2|
7,5,8|
7,6,1.7|
7,7,4.4|
];
constraint_x14_x10=[
0,0,0.54|
0,1,9.8|
0,2,9.8|
0,3,5.2|
0,4,4.6|
0,5,7.6|
0,6,8.9|
0,7,8.1|
1,0,4.3|
1,1,4.9|
1,2,8.3|
1,3,6.3|
1,4,4.5|
1,5,5.5|
1,6,7.1|
1,7,1|
2,0,8|
2,1,1.7|
2,2,4.1|
2,3,8.8|
2,4,9.2|
2,5,7.4|
2,6,3.5|
2,7,5|
3,0,3.3|
3,1,1.2|
3,2,2.8|
3,3,6.3|
3,4,3.4|
3,5,5.7|
3,6,5.4|
3,7,8.9|
4,0,6.7|
4,1,4.7|
4,2,6.9|
4,3,5.1|
4,4,6.7|
4,5,0.04|
4,6,2.8|
4,7,1.3|
5,0,3.1|
5,1,3.7|
5,2,4.1|
5,3,9.6|
5,4,6.1|
5,5,0.33|
5,6,6.2|
5,7,1.3|
6,0,6.8|
6,1,2.3|
6,2,2.7|
6,3,5.3|
6,4,1.8|
6,5,7.7|
6,6,1.3|
6,7,0.86|
7,0,3.1|
7,1,4.2|
7,2,8.3|
7,3,9.6|
7,4,1.6|
7,5,3.5|
7,6,2.7|
7,7,6.6|
];
constraint_x15_x11=[
0,0,5.8|
0,1,9.7|
0,2,8.2|
0,3,9|
0,4,0.73|
0,5,5.4|
0,6,5.1|
0,7,4.2|
1,0,9.2|
1,1,2.9|
1,2,0.63|
1,3,7.9|
1,4,10|
1,5,6.2|
1,6,2.5|
1,7,8.9|
2,0,5.8|
2,1,8|
2,2,8.3|
2,3,8.4|
2,4,8.4|
2,5,5.9|
2,6,9.5|
2,7,10|
3,0,4.5|
3,1,8.7|
3,2,5.9|
3,3,8.4|
3,4,6.3|
3,5,0.25|
3,6,5|
3,7,5.6|
4,0,7.5|
4,1,7.9|
4,2,3.8|
4,3,3.6|
4,4,8.7|
4,5,0.38|
4,6,4.9|
4,7,8.1|
5,0,2.5|
5,1,5.6|
5,2,8.5|
5,3,1|
5,4,4.3|
5,5,6|
5,6,5.4|
5,7,9.9|
6,0,3.9|
6,1,1.1|
6,2,9.2|
6,3,8.9|
6,4,2.9|
6,5,0.88|
6,6,9|
6,7,0.068|
7,0,9.9|
7,1,5.3|
7,2,8.4|
7,3,9.7|
7,4,4.9|
7,5,4|
7,6,3.3|
7,7,3.2|
];
constraint_x16_x12=[
0,0,5.9|
0,1,0.057|
0,2,2.2|
0,3,4.5|
0,4,7.8|
0,5,9.4|
0,6,5.6|
0,7,7.1|
1,0,8.5|
1,1,7.2|
1,2,1.6|
1,3,8.7|
1,4,9.5|
1,5,4.4|
1,6,6.8|
1,7,8.1|
2,0,8.8|
2,1,8|
2,2,3|
2,3,3.5|
2,4,9.6|
2,5,2|
2,6,6.8|
2,7,0.22|
3,0,3.2|
3,1,3|
3,2,6.9|
3,3,0.46|
3,4,4.3|
3,5,7.2|
3,6,5.5|
3,7,9.9|
4,0,1.1|
4,1,9.5|
4,2,0.71|
4,3,6.2|
4,4,0.05|
4,5,3.9|
4,6,9.6|
4,7,9.2|
5,0,1.6|
5,1,5.7|
5,2,2.5|
5,3,4.6|
5,4,6.1|
5,5,1.2|
5,6,1.9|
5,7,8.5|
6,0,7.3|
6,1,9|
6,2,8.2|
6,3,2.3|
6,4,2.8|
6,5,8.8|
6,6,7.6|
6,7,7.4|
7,0,5.7|
7,1,6|
7,2,3.6|
7,3,2.3|
7,4,2.2|
7,5,5.2|
7,6,2.8|
7,7,7.1|
];
constraint_x17_x13=[
0,0,9.6|
0,1,4.6|
0,2,6.3|
0,3,2.6|
0,4,5.5|
0,5,4.9|
0,6,7.9|
0,7,8.4|
1,0,4.2|
1,1,9.1|
1,2,6.3|
1,3,5.3|
1,4,4.2|
1,5,5.1|
1,6,0.28|
1,7,2.3|
2,0,9.2|
2,1,7.6|
2,2,9.1|
2,3,1.5|
2,4,4.7|
2,5,4.1|
2,6,5.1|
2,7,3.8|
3,0,4|
3,1,1.3|
3,2,7.1|
3,3,2.7|
3,4,3.2|
3,5,5.9|
3,6,7.4|
3,7,0.94|
4,0,0.29|
4,1,8|
4,2,2.1|
4,3,4.7|
4,4,9|
4,5,2.7|
4,6,3.1|
4,7,7.1|
5,0,8.4|
5,1,8|
5,2,0.9|
5,3,4.7|
5,4,2.9|
5,5,9.9|
5,6,5.9|
5,7,1.4|
6,0,5.4|
6,1,5.5|
6,2,3.9|
6,3,0.59|
6,4,9.1|
6,5,9|
6,6,8.6|
6,7,8.3|
7,0,3.6|
7,1,6.8|
7,2,2.8|
7,3,9.8|
7,4,7.7|
7,5,3.8|
7,6,8.7|
7,7,3.4|
];
constraint_x18_x14=[
0,0,2.3|
0,1,2.3|
0,2,0.32|
0,3,8.9|
0,4,0.26|
0,5,6.5|
0,6,1|
0,7,6.2|
1,0,0.31|
1,1,5.5|
1,2,8.6|
1,3,4.2|
1,4,9.6|
1,5,4.2|
1,6,5|
1,7,6.8|
2,0,6|
2,1,6.3|
2,2,6.4|
2,3,5.5|
2,4,4.1|
2,5,0.1|
2,6,6.9|
2,7,0.68|
3,0,6.3|
3,1,6.4|
3,2,7|
3,3,5.3|
3,4,7.7|
3,5,2.3|
3,6,0.00092|
3,7,0.49|
4,0,4.9|
4,1,2.4|
4,2,1.8|
4,3,8.6|
4,4,9.3|
4,5,2.1|
4,6,1.2|
4,7,8.7|
5,0,4.1|
5,1,9.9|
5,2,2.4|
5,3,6.9|
5,4,4.9|
5,5,9.1|
5,6,2.3|
5,7,5.7|
6,0,4|
6,1,7.2|
6,2,4.7|
6,3,0.87|
6,4,0.5|
6,5,5.7|
6,6,4.8|
6,7,7.1|
7,0,0.86|
7,1,5.2|
7,2,5.8|
7,3,5.6|
7,4,9.7|
7,5,0.42|
7,6,6|
7,7,8|
];
constraint_x19_x15=[
0,0,9|
0,1,7.7|
0,2,7.8|
0,3,2.4|
0,4,4|
0,5,9.9|
0,6,7.2|
0,7,2.1|
1,0,1.7|
1,1,5.3|
1,2,0.74|
1,3,4.9|
1,4,0.9|
1,5,4.6|
1,6,8.8|
1,7,4.2|
2,0,8.5|
2,1,3.5|
2,2,0.67|
2,3,5.6|
2,4,3.2|
2,5,7.4|
2,6,8|
2,7,1.6|
3,0,4.4|
3,1,4.8|
3,2,3.1|
3,3,3.4|
3,4,4.6|
3,5,7.6|
3,6,2.3|
3,7,6.6|
4,0,5.3|
4,1,1.1|
4,2,7.1|
4,3,6.4|
4,4,4.1|
4,5,1.7|
4,6,1.1|
4,7,0.99|
5,0,8.3|
5,1,7.7|
5,2,8.7|
5,3,2.3|
5,4,4.3|
5,5,5.9|
5,6,7|
5,7,3.6|
6,0,4.6|
6,1,8|
6,2,5.8|
6,3,5.1|
6,4,2.6|
6,5,4.5|
6,6,5|
6,7,2.4|
7,0,5.2|
7,1,6.9|
7,2,5.8|
7,3,2.2|
7,4,2.7|
7,5,6.2|
7,6,9.8|
7,7,2.8|
];
constraint_x20_x16=[
0,0,6.3|
0,1,2.6|
0,2,3|
0,3,5.7|
0,4,7|
0,5,7.2|
0,6,8.8|
0,7,2.1|
1,0,6|
1,1,9.3|
1,2,6.6|
1,3,8.2|
1,4,6.3|
1,5,4|
1,6,3.6|
1,7,3.1|
2,0,6.4|
2,1,0.089|
2,2,4.2|
2,3,6.9|
2,4,5.8|
2,5,5.8|
2,6,1.5|
2,7,8.9|
3,0,7.9|
3,1,0.46|
3,2,8.1|
3,3,7.5|
3,4,1.9|
3,5,2.8|
3,6,8|
3,7,8.4|
4,0,7.6|
4,1,0.12|
4,2,4.5|
4,3,4.9|
4,4,7.1|
4,5,8.4|
4,6,7.6|
4,7,1.8|
5,0,5.3|
5,1,1.2|
5,2,8.7|
5,3,3.8|
5,4,9.9|
5,5,10|
5,6,9.5|
5,7,4.8|
6,0,0.82|
6,1,4.5|
6,2,8.3|
6,3,5.8|
6,4,3.2|
6,5,2.1|
6,6,6.4|
6,7,3.4|
7,0,3.5|
7,1,2.7|
7,2,3.9|
7,3,2.8|
7,4,7.9|
7,5,0.087|
7,6,3.9|
7,7,4.5|
];
constraint_x1_y1=[
0,0,3.3|
0,1,1.6|
0,2,6.9|
0,3,9.8|
0,4,3.1|
0,5,4|
0,6,3.4|
0,7,7.4|
1,0,2.3|
1,1,4.4|
1,2,4.8|
1,3,6.8|
1,4,1.6|
1,5,2.3|
1,6,3.8|
1,7,1.6|
2,0,7.6|
2,1,6.6|
2,2,5.7|
2,3,1.6|
2,4,1.6|
2,5,6.2|
2,6,2.9|
2,7,3.1|
3,0,1.2|
3,1,7.5|
3,2,9.2|
3,3,6|
3,4,8.7|
3,5,3.7|
3,6,7.8|
3,7,4.5|
4,0,7.7|
4,1,6.9|
4,2,1.2|
4,3,5.9|
4,4,6.4|
4,5,2.5|
4,6,6.4|
4,7,2.8|
5,0,5|
5,1,7.9|
5,2,4.1|
5,3,2.6|
5,4,3.7|
5,5,4.3|
5,6,2.3|
5,7,3|
6,0,3.1|
6,1,3.2|
6,2,8.8|
6,3,10|
6,4,0.046|
6,5,2.2|
6,6,6.1|
6,7,9.9|
7,0,3.1|
7,1,7.7|
7,2,2.4|
7,3,0.31|
7,4,8.4|
7,5,4.7|
7,6,0.86|
7,7,9.8|
];
constraint_x2_y2=[
0,0,2.3|
0,1,5.7|
0,2,2.5|
0,3,1.2|
0,4,1.6|
0,5,3.9|
0,6,0.51|
0,7,6.6|
1,0,2.2|
1,1,7|
1,2,4.6|
1,3,4.7|
1,4,9|
1,5,2.2|
1,6,9.8|
1,7,4.1|
2,0,4.1|
2,1,9|
2,2,7.8|
2,3,3.7|
2,4,8.3|
2,5,3.2|
2,6,6.2|
2,7,6.9|
3,0,3.4|
3,1,7.8|
3,2,6.8|
3,3,7.8|
3,4,4.7|
3,5,4.6|
3,6,6.6|
3,7,8.5|
4,0,5.5|
4,1,0.054|
4,2,3.8|
4,3,8.2|
4,4,7.7|
4,5,1.5|
4,6,3.4|
4,7,5.2|
5,0,6.9|
5,1,4.5|
5,2,6.5|
5,3,4.3|
5,4,5.1|
5,5,1.7|
5,6,3.5|
5,7,4.8|
6,0,6.6|
6,1,8.3|
6,2,1.2|
6,3,7.9|
6,4,6.6|
6,5,1.7|
6,6,5.9|
6,7,6|
7,0,7.8|
7,1,5|
7,2,2.4|
7,3,10|
7,4,7.7|
7,5,9.7|
7,6,5.1|
7,7,2.7|
];
constraint_x3_y3=[
0,0,7.6|
0,1,5.1|
0,2,9.8|
0,3,2.5|
0,4,5.4|
0,5,6.5|
0,6,3.5|
0,7,7.1|
1,0,4|
1,1,8.1|
1,2,0.84|
1,3,4|
1,4,7.5|
1,5,5.6|
1,6,5.9|
1,7,6.3|
2,0,1.8|
2,1,1.2|
2,2,6.5|
2,3,1.5|
2,4,7.4|
2,5,0.15|
2,6,7.2|
2,7,5.8|
3,0,1.1|
3,1,9.7|
3,2,6.3|
3,3,8.3|
3,4,7.9|
3,5,7.9|
3,6,4.9|
3,7,1.5|
4,0,9|
4,1,8.2|
4,2,3.1|
4,3,3.7|
4,4,5.3|
4,5,6.1|
4,6,8.1|
4,7,7|
5,0,2.6|
5,1,4|
5,2,6.9|
5,3,5.3|
5,4,8.1|
5,5,1.6|
5,6,1.6|
5,7,1.7|
6,0,7.8|
6,1,3.1|
6,2,1.5|
6,3,0.51|
6,4,7.4|
6,5,2.4|
6,6,3.7|
6,7,9.9|
7,0,1.6|
7,1,4.5|
7,2,4.1|
7,3,2.6|
7,4,8.3|
7,5,5.3|
7,6,3.8|
7,7,4.3|
];
constraint_x4_y4=[
0,0,2.9|
0,1,9.1|
0,2,0.0096|
0,3,6.9|
0,4,8.7|
0,5,3.1|
0,6,4.3|
0,7,9.7|
1,0,6|
1,1,9.7|
1,2,9.8|
1,3,6.4|
1,4,3.6|
1,5,2.2|
1,6,8.2|
1,7,9.3|
2,0,9.6|
2,1,5.6|
2,2,2.4|
2,3,4.7|
2,4,2|
2,5,4.1|
2,6,3.2|
2,7,6|
3,0,6.9|
3,1,1.6|
3,2,0.93|
3,3,4.1|
3,4,6.9|
3,5,5.8|
3,6,2.3|
3,7,1.1|
4,0,1.8|
4,1,3.7|
4,2,0.52|
4,3,1.5|
4,4,8.6|
4,5,7|
4,6,8.8|
4,7,1.4|
5,0,1.3|
5,1,8.5|
5,2,2.6|
5,3,9.2|
5,4,2.4|
5,5,2|
5,6,5.4|
5,7,5.8|
6,0,9.6|
6,1,3.9|
6,2,3.3|
6,3,0.2|
6,4,6.4|
6,5,3.1|
6,6,6.7|
6,7,1.2|
7,0,3.9|
7,1,8.3|
7,2,5.6|
7,3,4.6|
7,4,4.5|
7,5,4.9|
7,6,4.2|
7,7,6.4|
];
constraint_x5_y5=[
0,0,2.2|
0,1,3.1|
0,2,7.8|
0,3,7|
0,4,2.3|
0,5,8.6|
0,6,3.2|
0,7,9|
1,0,4.2|
1,1,1.5|
1,2,3.6|
1,3,9.4|
1,4,4.2|
1,5,5.4|
1,6,9.3|
1,7,9.8|
2,0,6.5|
2,1,5|
2,2,7.4|
2,3,2.9|
2,4,4.2|
2,5,5.2|
2,6,9.7|
2,7,9.6|
3,0,0.37|
3,1,5|
3,2,3.3|
3,3,6.7|
3,4,4|
3,5,4.1|
3,6,4.7|
3,7,9.9|
4,0,0.82|
4,1,3.2|
4,2,0.79|
4,3,2.9|
4,4,7.7|
4,5,7.4|
4,6,1.9|
4,7,3.5|
5,0,6.9|
5,1,6.6|
5,2,1|
5,3,4.5|
5,4,4.2|
5,5,7.4|
5,6,4|
5,7,5.6|
6,0,6.9|
6,1,7.9|
6,2,8.1|
6,3,9.3|
6,4,1.3|
6,5,9.2|
6,6,0.26|
6,7,2.4|
7,0,2.9|
7,1,7.8|
7,2,4.3|
7,3,6.8|
7,4,2.7|
7,5,9.5|
7,6,0.15|
7,7,8.9|
];
constraint_x6_y6=[
0,0,5.4|
0,1,0.16|
0,2,1.8|
0,3,2.9|
0,4,8.8|
0,5,2.1|
0,6,4.6|
0,7,5.6|
1,0,4|
1,1,6.6|
1,2,0.43|
1,3,2.8|
1,4,1.5|
1,5,7.9|
1,6,1.5|
1,7,8.8|
2,0,4.2|
2,1,8.7|
2,2,1.3|
2,3,9.1|
2,4,8.8|
2,5,1.6|
2,6,1.7|
2,7,1.2|
3,0,9.6|
3,1,3.1|
3,2,1.5|
3,3,10|
3,4,8|
3,5,4.8|
3,6,2.8|
3,7,1.2|
4,0,9.9|
4,1,5|
4,2,5.3|
4,3,4.4|
4,4,5.5|
4,5,9.4|
4,6,9.2|
4,7,0.82|
5,0,3.4|
5,1,8.2|
5,2,4.6|
5,3,4.7|
5,4,5.7|
5,5,9|
5,6,4.5|
5,7,0.52|
6,0,2.5|
6,1,4.2|
6,2,1.7|
6,3,1.3|
6,4,0.37|
6,5,5|
6,6,9.2|
6,7,1.4|
7,0,5.6|
7,1,9.7|
7,2,5.7|
7,3,2.1|
7,4,8.3|
7,5,5.7|
7,6,2.3|
7,7,3|
];
constraint_x7_y7=[
0,0,2.3|
0,1,8.8|
0,2,5.9|
0,3,0.62|
0,4,7.2|
0,5,1.4|
0,6,2.8|
0,7,4.3|
1,0,5.1|
1,1,8.7|
1,2,8.5|
1,3,4.9|
1,4,3.7|
1,5,1.1|
1,6,6.2|
1,7,2.4|
2,0,2.9|
2,1,5.7|
2,2,2.4|
2,3,3.1|
2,4,7.3|
2,5,4.4|
2,6,1.9|
2,7,2.7|
3,0,2|
3,1,8.1|
3,2,7.7|
3,3,7.2|
3,4,0.29|
3,5,3.9|
3,6,8.4|
3,7,8.4|
4,0,8.5|
4,1,8|
4,2,5.6|
4,3,2.4|
4,4,8.2|
4,5,1.6|
4,6,0.13|
4,7,8.2|
5,0,7.1|
5,1,0.74|
5,2,1.6|
5,3,7.9|
5,4,1.3|
5,5,4.4|
5,6,1.8|
5,7,8.6|
6,0,8.3|
6,1,5.2|
6,2,6.2|
6,3,8.1|
6,4,8.9|
6,5,2.2|
6,6,4.3|
6,7,2.5|
7,0,4.7|
7,1,9.5|
7,2,6|
7,3,7.2|
7,4,9.4|
7,5,6.7|
7,6,7.8|
7,7,5.2|
];
constraint_x8_y8=[
0,0,9.2|
0,1,3.6|
0,2,5.9|
0,3,5.1|
0,4,7.6|
0,5,4.1|
0,6,5.6|
0,7,8.3|
1,0,5.7|
1,1,0.67|
1,2,4.4|
1,3,5.5|
1,4,9.6|
1,5,7|
1,6,2.6|
1,7,7.2|
2,0,5.9|
2,1,1.6|
2,2,9.6|
2,3,0.72|
2,4,8.7|
2,5,4.3|
2,6,2.5|
2,7,5|
3,0,8.3|
3,1,3.7|
3,2,4.8|
3,3,9.9|
3,4,2.6|
3,5,1.5|
3,6,1.5|
3,7,6.3|
4,0,4.4|
4,1,5.7|
4,2,4.7|
4,3,5.8|
4,4,3.3|
4,5,5|
4,6,8.2|
4,7,1.5|
5,0,4.5|
5,1,2.5|
5,2,5|
5,3,3.9|
5,4,0.014|
5,5,1.9|
5,6,4.5|
5,7,0.84|
6,0,4.1|
6,1,2.6|
6,2,8.2|
6,3,3|
6,4,2.1|
6,5,0.54|
6,6,5.8|
6,7,0.29|
7,0,7.8|
7,1,1.9|
7,2,1.7|
7,3,8.1|
7,4,9.1|
7,5,6.6|
7,6,9.9|
7,7,3.7|
];
constraint_x9_y9=[
0,0,6.3|
0,1,9.6|
0,2,6.3|
0,3,2.9|
0,4,6.6|
0,5,6.9|
0,6,2.1|
0,7,4.6|
1,0,2.3|
1,1,7.3|
1,2,2.1|
1,3,2.3|
1,4,4.4|
1,5,0.17|
1,6,5.9|
1,7,5.2|
2,0,9.7|
2,1,0.82|
2,2,0.84|
2,3,8.4|
2,4,9.4|
2,5,9.5|
2,6,9.3|
2,7,9.5|
3,0,3.1|
3,1,2.9|
3,2,6.4|
3,3,0.81|
3,4,7.9|
3,5,5.1|
3,6,9.2|
3,7,7.5|
4,0,8.4|
4,1,2|
4,2,1.2|
4,3,0.42|
4,4,2.4|
4,5,4.4|
4,6,7.9|
4,7,7.6|
5,0,8.1|
5,1,0.54|
5,2,6.9|
5,3,8.7|
5,4,8.5|
5,5,6.4|
5,6,6.1|
5,7,10|
6,0,6.4|
6,1,1.6|
6,2,2.8|
6,3,2.5|
6,4,3|
6,5,9.9|
6,6,3|
6,7,5.9|
7,0,1.5|
7,1,9.1|
7,2,3|
7,3,3.7|
7,4,0.13|
7,5,5.8|
7,6,2.9|
7,7,5.7|
];
initial_distribution_y1=[0.099,0.12,0.21,0.043,0.12,0.23,0.055,0.11];
initial_distribution_y2=[0.18,0.042,0.12,0.18,0.075,0.036,0.22,0.15];
initial_distribution_y3=[0.15,0.091,0.0074,0.019,0.18,0.068,0.3,0.18];
initial_distribution_y4=[0.17,0.17,0.012,0.2,0.01,0.21,0.056,0.17];
initial_distribution_y5=[0.021,0.1,0.14,0.042,0.17,0.22,0.18,0.12];
initial_distribution_y6=[0.16,0.098,0.058,0.19,0.0083,0.22,0.25,0.018];
initial_distribution_y7=[0.13,0.25,0.023,0.11,0.089,0.05,0.043,0.31];
initial_distribution_y8=[0.19,0.12,0.087,0.18,0.018,0.22,0.077,0.11];
initial_distribution_y9=[0.12,0.011,0.089,0.22,0.17,0.22,0.054,0.11];
transition_y1=[
0.11,0.3,0.0074,0.018,0.069,0.13,0.28,0.083|
0.24,0.29,0.077,0.096,0.0071,0.097,0.11,0.081|
0.039,0.055,0.25,0.0076,0.064,0.18,0.25,0.16|
0.17,0.052,0.069,0.086,0.15,0.11,0.15,0.2|
0.091,0.11,0.14,0.12,0.19,0.13,0.01,0.2|
0.086,0.12,0.05,0.089,0.21,0.25,0.13,0.067|
0.13,0.082,0.12,0.2,0.094,0.16,0.058,0.16|
0.14,0.11,0.16,0.1,0.14,0.1,0.14,0.099|
];
transition_y2=[
0.1,0.19,0.14,0.048,0.034,0.19,0.17,0.12|
0.041,0.13,0.18,0.21,0.1,0.2,0.1,0.044|
0.21,0.0069,0.062,0.064,0.054,0.21,0.24,0.15|
0.22,0.2,0.2,0.077,0.091,0.16,0.015,0.029|
0.12,0.13,0.22,0.12,0.028,0.081,0.19,0.12|
0.069,0.1,0.21,0.12,0.16,0.032,0.14,0.17|
0.19,0.12,0.19,0.18,0.062,0.15,0.011,0.091|
0.024,0.24,0.18,0.19,0.12,0.018,0.2,0.03|
];
transition_y3=[
0.2,0.043,0.051,0.21,0.062,0.23,0.035,0.17|
0.17,0.2,0.026,0.15,0.14,0.083,0.045,0.18|
0.084,0.21,0.19,0.07,0.13,0.12,0.11,0.097|
0.032,0.2,0.065,0.18,0.078,0.14,0.14,0.17|
0.15,0.12,0.1,0.18,0.19,0.12,0.0079,0.12|
0.21,0.0087,0.26,0.03,0.19,0.053,0.15,0.1|
0.16,0.13,0.18,0.0049,0.089,0.16,0.051,0.22|
0.014,0.13,0.19,0.079,0.094,0.24,0.16,0.089|
];
transition_y4=[
0.094,0.039,0.28,0.093,0.12,0.31,0.018,0.041|
0.0027,0.17,0.017,0.22,0.17,0.18,0.04,0.19|
0.17,0.074,0.028,0.24,0.23,0.055,0.032,0.17|
0.059,0.038,0.11,0.071,0.22,0.12,0.16,0.22|
0.16,0.054,0.17,0.079,0.19,0.1,0.15,0.11|
0.086,0.015,0.048,0.19,0.19,0.064,0.18,0.22|
0.093,0.17,0.084,0.11,0.0034,0.14,0.2,0.2|
0.14,0.047,0.017,0.2,0.16,0.21,0.049,0.17|
];
transition_y5=[
0.094,0.057,0.15,0.18,0.084,0.11,0.17,0.15|
0.22,0.0039,0.16,0.1,0.17,0.11,0.066,0.17|
0.061,0.13,0.15,0.18,0.056,0.15,0.14,0.13|
0.14,0.26,0.0081,0.22,0.1,0.11,0.064,0.092|
0.098,0.078,0.19,0.12,0.07,0.2,0.2,0.05|
0.29,0.23,0.16,0.07,0.061,0.14,0.035,0.014|
0.17,0.065,0.18,0.11,0.067,0.18,0.069,0.15|
0.082,0.019,0.072,0.24,0.23,0.013,0.21,0.14|
];
transition_y6=[
0.14,0.13,0.074,0.23,0.056,0.037,0.16,0.17|
0.17,0.0085,0.13,0.22,0.1,0.21,0.16,0.0035|
0.061,0.084,0.19,0.19,0.13,0.035,0.2,0.11|
0.14,0.22,0.0057,0.11,0.24,0.021,0.21,0.061|
0.094,0.14,0.2,0.22,0.08,0.026,0.043,0.2|
0.045,0.0099,0.064,0.12,0.12,0.15,0.22,0.27|
0.15,0.072,0.036,0.18,0.18,0.13,0.24,0.015|
0.096,0.17,0.18,0.2,0.11,0.18,0.027,0.023|
];
transition_y7=[
0.19,0.18,0.058,0.13,0.14,0.033,0.15,0.12|
0.081,0.11,0.21,0.088,0.18,0.17,0.029,0.13|
0.2,0.19,0.2,0.02,0.12,0.066,0.043,0.16|
0.2,0.067,0.089,0.14,0.12,0.2,0.13,0.054|
0.12,0.06,0.2,0.019,0.038,0.16,0.16,0.24|
0.16,0.11,0.16,0.089,0.18,0.06,0.1,0.15|
0.036,0.06,0.061,0.021,0.19,0.22,0.19,0.22|
0.042,0.17,0.0076,0.15,0.074,0.2,0.17,0.19|
];
transition_y8=[
0.19,0.042,0.12,0.11,0.17,0.014,0.25,0.11|
0.19,0.095,0.018,0.11,0.21,0.17,0.11,0.1|
0.02,0.2,0.038,0.17,0.19,0.2,0.0052,0.17|
0.23,0.061,0.02,0.13,0.16,0.19,0.098,0.12|
0.17,0.18,0.052,0.18,0.11,0.063,0.098,0.16|
0.18,0.17,0.035,0.067,0.23,0.045,0.2,0.07|
0.059,0.083,0.15,0.27,0.06,0.082,0.21,0.093|
0.049,0.15,0.12,0.12,0.14,0.059,0.17,0.19|
];
transition_y9=[
0.14,0.084,0.25,0.036,0.03,0.088,0.25,0.13|
0.1,0.067,0.16,0.063,0.12,0.082,0.19,0.22|
0.075,0.23,0.13,0.14,0.018,0.046,0.22,0.15|
0.21,0.049,0.16,0.015,0.25,0.28,0.023,0.012|
0.18,0.11,0.2,0.16,0.024,0.12,0.047,0.15|
0.085,0.072,0.17,0.18,0.07,0.18,0.19,0.049|
0.21,0.041,0.12,0.11,0.02,0.093,0.2,0.21|
0.1,0.14,0.12,0.11,0.2,0.078,0.066,0.18|
];
